(set-info :smt-lib-version 2.6)
(set-logic QF_NIA)
(set-info :source |
Generated by: Cristina Borralleras, Daniel Larraz, Albert Oliveras, Enric Rodriguez-Carbonell, Albert Rubio
Generated on: 2017-04-27
Generator: VeryMax
Application: Termination proving
Target solver: barcelogic
|)
(set-info :license "https://creativecommons.org/licenses/by/4.0/")
(set-info :category "industrial")
(set-info :status sat)
(declare-fun Nl8arg11 () Int)
(declare-fun Nl8arg21 () Int)
(declare-fun Nl8arg31 () Int)
(declare-fun Nl8arg41 () Int)
(declare-fun Nl8arg51 () Int)
(declare-fun Nl8arg12 () Int)
(declare-fun Nl8arg22 () Int)
(declare-fun Nl8arg32 () Int)
(declare-fun Nl8arg42 () Int)
(declare-fun Nl8arg52 () Int)
(declare-fun Nl8arg13 () Int)
(declare-fun Nl8arg23 () Int)
(declare-fun Nl8arg33 () Int)
(declare-fun Nl8arg43 () Int)
(declare-fun Nl8arg53 () Int)
(declare-fun lam0n0 () Int)
(declare-fun lam0n1 () Int)
(declare-fun lam0n2 () Int)
(declare-fun lam0n3 () Int)
(declare-fun lam0n4 () Int)
(declare-fun lam0n5 () Int)
(declare-fun lam0n6 () Int)
(declare-fun lam0n7 () Int)
(declare-fun lam0n8 () Int)
(declare-fun lam0n9 () Int)
(declare-fun lam0n10 () Int)
(declare-fun lam0n11 () Int)
(declare-fun UndefCntr0_CT () Int)
(declare-fun Nl8CT1 () Int)
(declare-fun Nl8CT2 () Int)
(declare-fun Nl8CT3 () Int)
(declare-fun UndefCntr0_arg1 () Int)
(declare-fun UndefCntr0_arg2 () Int)
(declare-fun UndefCntr0_arg3 () Int)
(declare-fun UndefCntr0_arg4 () Int)
(declare-fun UndefCntr0_arg5 () Int)
(declare-fun UndefCntr0_undef122 () Int)
(declare-fun UndefCntr0_undef123 () Int)
(declare-fun UndefCntr0_undef124 () Int)
(declare-fun UndefCntr0_undef125 () Int)
(declare-fun UndefCntr0_undef126 () Int)
(declare-fun lam1n0 () Int)
(declare-fun lam1n1 () Int)
(declare-fun lam1n2 () Int)
(declare-fun lam1n3 () Int)
(declare-fun lam1n4 () Int)
(declare-fun lam1n5 () Int)
(declare-fun lam1n6 () Int)
(declare-fun lam1n7 () Int)
(declare-fun lam1n8 () Int)
(declare-fun lam1n9 () Int)
(declare-fun lam1n10 () Int)
(declare-fun lam1n11 () Int)
(declare-fun lam2n0 () Int)
(declare-fun lam2n1 () Int)
(declare-fun lam2n2 () Int)
(declare-fun lam2n3 () Int)
(declare-fun lam2n4 () Int)
(declare-fun lam2n5 () Int)
(declare-fun lam2n6 () Int)
(declare-fun lam2n7 () Int)
(declare-fun lam2n8 () Int)
(declare-fun lam2n9 () Int)
(declare-fun lam2n10 () Int)
(declare-fun lam2n11 () Int)
(declare-fun lam3n0 () Int)
(declare-fun lam3n1 () Int)
(declare-fun lam3n2 () Int)
(declare-fun lam3n3 () Int)
(declare-fun lam3n4 () Int)
(declare-fun lam3n5 () Int)
(declare-fun lam3n6 () Int)
(declare-fun lam3n7 () Int)
(declare-fun lam3n8 () Int)
(declare-fun lam3n9 () Int)
(declare-fun lam3n10 () Int)
(declare-fun lam3n11 () Int)
(declare-fun lam4n0 () Int)
(declare-fun lam4n1 () Int)
(declare-fun lam4n2 () Int)
(declare-fun lam4n3 () Int)
(declare-fun lam4n4 () Int)
(declare-fun lam4n5 () Int)
(declare-fun lam4n6 () Int)
(declare-fun lam4n7 () Int)
(declare-fun lam4n8 () Int)
(declare-fun lam4n9 () Int)
(declare-fun lam4n10 () Int)
(declare-fun lam4n11 () Int)
(declare-fun lam4n12 () Int)
(declare-fun lam4n13 () Int)
(declare-fun lam4n14 () Int)
(declare-fun lam4n15 () Int)
(declare-fun lam4n16 () Int)
(declare-fun lam5n0 () Int)
(declare-fun lam5n1 () Int)
(declare-fun lam5n2 () Int)
(declare-fun lam5n3 () Int)
(declare-fun lam5n4 () Int)
(declare-fun lam5n5 () Int)
(declare-fun lam5n6 () Int)
(declare-fun lam5n7 () Int)
(declare-fun lam5n8 () Int)
(declare-fun lam5n9 () Int)
(declare-fun lam5n10 () Int)
(declare-fun lam5n11 () Int)
(declare-fun lam5n12 () Int)
(declare-fun lam5n13 () Int)
(declare-fun lam5n14 () Int)
(declare-fun lam5n15 () Int)
(declare-fun lam5n16 () Int)
(declare-fun lam6n0 () Int)
(declare-fun lam6n1 () Int)
(declare-fun lam6n2 () Int)
(declare-fun lam6n3 () Int)
(declare-fun lam6n4 () Int)
(declare-fun lam6n5 () Int)
(declare-fun lam6n6 () Int)
(declare-fun lam6n7 () Int)
(declare-fun lam6n8 () Int)
(declare-fun lam6n9 () Int)
(declare-fun lam6n10 () Int)
(declare-fun lam6n11 () Int)
(declare-fun lam6n12 () Int)
(declare-fun lam6n13 () Int)
(declare-fun lam6n14 () Int)
(declare-fun lam6n15 () Int)
(declare-fun lam6n16 () Int)
(declare-fun lam7n0 () Int)
(declare-fun lam7n1 () Int)
(declare-fun lam7n2 () Int)
(declare-fun lam7n3 () Int)
(declare-fun lam7n4 () Int)
(declare-fun lam7n5 () Int)
(declare-fun lam7n6 () Int)
(declare-fun lam7n7 () Int)
(declare-fun lam7n8 () Int)
(declare-fun lam7n9 () Int)
(declare-fun lam7n10 () Int)
(declare-fun lam7n11 () Int)
(declare-fun lam7n12 () Int)
(declare-fun lam7n13 () Int)
(declare-fun lam7n14 () Int)
(declare-fun lam7n15 () Int)
(declare-fun lam7n16 () Int)
(declare-fun lam7n17 () Int)
(declare-fun lam8n0 () Int)
(declare-fun lam8n1 () Int)
(declare-fun lam8n2 () Int)
(declare-fun lam8n3 () Int)
(declare-fun lam8n4 () Int)
(declare-fun lam8n5 () Int)
(declare-fun lam8n6 () Int)
(declare-fun lam8n7 () Int)
(declare-fun lam8n8 () Int)
(declare-fun lam8n9 () Int)
(declare-fun lam8n10 () Int)
(declare-fun lam8n11 () Int)
(declare-fun lam8n12 () Int)
(declare-fun lam8n13 () Int)
(declare-fun lam8n14 () Int)
(declare-fun lam8n15 () Int)
(declare-fun lam8n16 () Int)
(declare-fun lam8n17 () Int)
(declare-fun lam9n0 () Int)
(declare-fun lam9n1 () Int)
(declare-fun lam9n2 () Int)
(declare-fun lam9n3 () Int)
(declare-fun lam9n4 () Int)
(declare-fun lam9n5 () Int)
(declare-fun lam9n6 () Int)
(declare-fun lam9n7 () Int)
(declare-fun lam9n8 () Int)
(declare-fun lam9n9 () Int)
(declare-fun lam9n10 () Int)
(declare-fun lam9n11 () Int)
(declare-fun lam9n12 () Int)
(declare-fun lam9n13 () Int)
(declare-fun lam9n14 () Int)
(declare-fun lam9n15 () Int)
(declare-fun lam9n16 () Int)
(declare-fun lam9n17 () Int)
(declare-fun lam10n0 () Int)
(declare-fun lam10n1 () Int)
(declare-fun lam10n2 () Int)
(declare-fun lam10n3 () Int)
(declare-fun lam10n4 () Int)
(declare-fun lam10n5 () Int)
(declare-fun lam10n6 () Int)
(declare-fun lam10n7 () Int)
(declare-fun lam10n8 () Int)
(declare-fun lam10n9 () Int)
(declare-fun lam10n10 () Int)
(declare-fun lam10n11 () Int)
(declare-fun lam10n12 () Int)
(declare-fun lam10n13 () Int)
(declare-fun lam11n0 () Int)
(declare-fun lam11n1 () Int)
(declare-fun lam11n2 () Int)
(declare-fun lam11n3 () Int)
(declare-fun lam11n4 () Int)
(declare-fun lam11n5 () Int)
(declare-fun lam11n6 () Int)
(declare-fun lam11n7 () Int)
(declare-fun lam11n8 () Int)
(declare-fun lam11n9 () Int)
(declare-fun lam11n10 () Int)
(declare-fun lam11n11 () Int)
(declare-fun lam11n12 () Int)
(declare-fun lam11n13 () Int)
(declare-fun lam12n0 () Int)
(declare-fun lam12n1 () Int)
(declare-fun lam12n2 () Int)
(declare-fun lam12n3 () Int)
(declare-fun lam12n4 () Int)
(declare-fun lam12n5 () Int)
(declare-fun lam12n6 () Int)
(declare-fun lam12n7 () Int)
(declare-fun lam12n8 () Int)
(declare-fun lam12n9 () Int)
(declare-fun lam12n10 () Int)
(declare-fun lam12n11 () Int)
(declare-fun lam12n12 () Int)
(declare-fun lam12n13 () Int)
(declare-fun undef1 () Int)
(declare-fun undef16 () Int)
(declare-fun undef17 () Int)
(declare-fun undef104 () Int)
(declare-fun undef159 () Int)
(declare-fun undef2 () Int)
(declare-fun undef18 () Int)
(declare-fun undef23 () Int)
(declare-fun undef111 () Int)
(declare-fun undef105 () Int)
(declare-fun undef160 () Int)
(declare-fun undef106 () Int)
(declare-fun undef107 () Int)
(declare-fun undef108 () Int)
(declare-fun undef24 () Int)
(declare-fun undef25 () Int)
(declare-fun undef31 () Int)
(declare-fun undef32 () Int)
(declare-fun undef112 () Int)
(declare-fun undef119 () Int)
(declare-fun undef120 () Int)
(declare-fun undef113 () Int)
(declare-fun undef121 () Int)
(declare-fun undef114 () Int)
(declare-fun undef115 () Int)
(declare-fun undef116 () Int)
(declare-fun FV_arg1_1 () Int)
(declare-fun FV_arg2_1 () Int)
(declare-fun FV_arg3_1 () Int)
(declare-fun FV_arg4_1 () Int)
(declare-fun FV_arg5_1 () Int)
(declare-fun FV_undef122_0 () Int)
(declare-fun FV_undef123_0 () Int)
(declare-fun FV_arg1_0 () Int)
(declare-fun FV_arg2_0 () Int)
(declare-fun FV_arg3_0 () Int)
(declare-fun FV_arg4_0 () Int)
(declare-fun FV_arg5_0 () Int)
(declare-fun FV_undef124_0 () Int)
(declare-fun FV_undef125_0 () Int)
(declare-fun FV_undef126_0 () Int)
(declare-fun lam13n0 () Int)
(declare-fun lam13n1 () Int)
(declare-fun lam13n2 () Int)
(declare-fun lam13n3 () Int)
(declare-fun lam13n4 () Int)
(declare-fun lam13n5 () Int)
(declare-fun lam13n6 () Int)
(declare-fun lam13n7 () Int)
(declare-fun lam13n8 () Int)
(declare-fun lam14n0 () Int)
(declare-fun lam14n1 () Int)
(declare-fun lam14n2 () Int)
(declare-fun lam14n3 () Int)
(declare-fun lam14n4 () Int)
(declare-fun lam14n5 () Int)
(declare-fun lam14n6 () Int)
(declare-fun lam14n7 () Int)
(declare-fun lam15n0 () Int)
(declare-fun lam15n1 () Int)
(declare-fun lam15n2 () Int)
(declare-fun lam15n3 () Int)
(declare-fun lam15n4 () Int)
(declare-fun lam15n5 () Int)
(declare-fun lam15n6 () Int)
(declare-fun lam16n0 () Int)
(declare-fun lam16n1 () Int)
(declare-fun lam16n2 () Int)
(declare-fun lam16n3 () Int)
(declare-fun lam16n4 () Int)
(declare-fun lam16n5 () Int)
(declare-fun lam16n6 () Int)
(declare-fun lam17n0 () Int)
(declare-fun lam17n1 () Int)
(declare-fun lam17n2 () Int)
(declare-fun lam17n3 () Int)
(declare-fun lam17n4 () Int)
(declare-fun lam17n5 () Int)
(declare-fun lam17n6 () Int)
(declare-fun lam18n0 () Int)
(declare-fun lam18n1 () Int)
(declare-fun lam18n2 () Int)
(declare-fun lam18n3 () Int)
(declare-fun lam18n4 () Int)
(declare-fun lam18n5 () Int)
(declare-fun lam18n6 () Int)
(declare-fun lam18n7 () Int)
(declare-fun lam19n0 () Int)
(declare-fun lam19n1 () Int)
(declare-fun lam19n2 () Int)
(declare-fun lam19n3 () Int)
(declare-fun lam19n4 () Int)
(declare-fun lam19n5 () Int)
(declare-fun lam19n6 () Int)
(declare-fun lam20n0 () Int)
(declare-fun lam20n1 () Int)
(declare-fun lam20n2 () Int)
(declare-fun lam20n3 () Int)
(declare-fun lam20n4 () Int)
(declare-fun lam20n5 () Int)
(declare-fun lam20n6 () Int)
(declare-fun lam21n0 () Int)
(declare-fun lam21n1 () Int)
(declare-fun lam21n2 () Int)
(declare-fun lam21n3 () Int)
(declare-fun lam21n4 () Int)
(declare-fun lam21n5 () Int)
(declare-fun lam21n6 () Int)
(declare-fun lam21n7 () Int)
(declare-fun lam22n0 () Int)
(declare-fun lam22n1 () Int)
(declare-fun lam22n2 () Int)
(declare-fun lam22n3 () Int)
(declare-fun lam22n4 () Int)
(declare-fun lam22n5 () Int)
(declare-fun lam22n6 () Int)
(declare-fun lam23n0 () Int)
(declare-fun lam23n1 () Int)
(declare-fun lam23n2 () Int)
(declare-fun lam23n3 () Int)
(declare-fun lam23n4 () Int)
(declare-fun lam23n5 () Int)
(declare-fun FV_arg1_2 () Int)
(declare-fun FV_arg2_2 () Int)
(declare-fun FV_arg4_2 () Int)
(declare-fun FV_arg3_2 () Int)
(declare-fun FV_arg5_2 () Int)
(declare-fun FV_undef122_2 () Int)
(declare-fun FV_undef123_2 () Int)
(assert ( and ( <= ( - 1 ) Nl8arg11 ) ( <= Nl8arg11 1 ) ( <= ( - 1 ) Nl8arg21 ) ( <= Nl8arg21 1 ) ( <= ( - 1 ) Nl8arg31 ) ( <= Nl8arg31 1 ) ( <= ( - 1 ) Nl8arg41 ) ( <= Nl8arg41 1 ) ( <= ( - 1 ) Nl8arg51 ) ( <= Nl8arg51 1 ) ( <= ( - 1 ) Nl8arg12 ) ( <= Nl8arg12 1 ) ( <= ( - 1 ) Nl8arg22 ) ( <= Nl8arg22 1 ) ( <= ( - 1 ) Nl8arg32 ) ( <= Nl8arg32 1 ) ( <= ( - 1 ) Nl8arg42 ) ( <= Nl8arg42 1 ) ( <= ( - 1 ) Nl8arg52 ) ( <= Nl8arg52 1 ) ( <= ( - 1 ) Nl8arg13 ) ( <= Nl8arg13 1 ) ( <= ( - 1 ) Nl8arg23 ) ( <= Nl8arg23 1 ) ( <= ( - 1 ) Nl8arg33 ) ( <= Nl8arg33 1 ) ( <= ( - 1 ) Nl8arg43 ) ( <= Nl8arg43 1 ) ( <= ( - 1 ) Nl8arg53 ) ( <= Nl8arg53 1 ) ))
(assert ( or ( and ( >= lam0n0 0 ) ( >= lam0n1 0 ) ( >= lam0n2 0 ) ( >= lam0n3 0 ) ( >= lam0n4 0 ) ( >= lam0n5 0 ) ( >= lam0n6 0 ) ( >= lam0n7 0 ) ( >= lam0n8 0 ) ( >= lam0n9 0 ) ( >= lam0n10 0 ) ( >= lam0n11 0 ) ( > ( + ( * 1 lam0n0 ) ( * 1 lam0n1 ) ( * 1 lam0n2 ) ( * 2 lam0n4 ) ( * 2 lam0n5 ) ( * 2 lam0n6 ) ( * 3 lam0n7 ) ( * UndefCntr0_CT lam0n8 ) ( * Nl8CT1 lam0n9 ) ( * Nl8CT2 lam0n10 ) ( * Nl8CT3 lam0n11 ) ( - 1 ) ) 0 ) ( = ( + ( * ( - 1 ) lam0n0 ) ( * ( - 1 ) lam0n4 ) ( * ( - 1 ) lam0n5 ) ( * ( - 1 ) lam0n6 ) ( * ( - 1 ) lam0n7 ) ( * UndefCntr0_arg1 lam0n8 ) ( * Nl8arg11 lam0n9 ) ( * Nl8arg12 lam0n10 ) ( * Nl8arg13 lam0n11 ) ) 0 ) ( = ( + ( * ( - 1 ) lam0n0 ) ( * ( - 1 ) lam0n1 ) ( * ( - 1 ) lam0n4 ) ( * UndefCntr0_arg2 lam0n8 ) ( * Nl8arg21 lam0n9 ) ( * Nl8arg22 lam0n10 ) ( * Nl8arg23 lam0n11 ) ) 0 ) ( = ( + ( * 1 lam0n4 ) ( * 1 lam0n5 ) ( * UndefCntr0_arg3 lam0n8 ) ( * Nl8arg31 lam0n9 ) ( * Nl8arg32 lam0n10 ) ( * Nl8arg33 lam0n11 ) ) 0 ) ( = ( + ( * 1 lam0n0 ) ( * 1 lam0n6 ) ( * UndefCntr0_arg4 lam0n8 ) ( * Nl8arg41 lam0n9 ) ( * Nl8arg42 lam0n10 ) ( * Nl8arg43 lam0n11 ) ) 0 ) ( = ( + ( * UndefCntr0_arg5 lam0n8 ) ( * Nl8arg51 lam0n9 ) ( * Nl8arg52 lam0n10 ) ( * Nl8arg53 lam0n11 ) ) 0 ) ( = ( + ( * ( - 1 ) lam0n2 ) ( * UndefCntr0_undef122 lam0n8 ) ) 0 ) ( = ( + ( * ( - 1 ) lam0n3 ) ( * UndefCntr0_undef123 lam0n8 ) ) 0 ) ( = ( * UndefCntr0_undef124 lam0n8 ) 0 ) ( = ( * UndefCntr0_undef125 lam0n8 ) 0 ) ( = ( * UndefCntr0_undef126 lam0n8 ) 0 ) ) ( and ( >= lam1n0 0 ) ( >= lam1n1 0 ) ( >= lam1n2 0 ) ( >= lam1n3 0 ) ( >= lam1n4 0 ) ( >= lam1n5 0 ) ( >= lam1n6 0 ) ( >= lam1n7 0 ) ( >= lam1n8 0 ) ( >= lam1n9 0 ) ( >= lam1n10 0 ) ( >= lam1n11 0 ) ( > ( + ( * 1 lam1n0 ) ( * 1 lam1n1 ) ( * 1 lam1n2 ) ( * 2 lam1n4 ) ( * 2 lam1n5 ) ( * 2 lam1n6 ) ( * 3 lam1n7 ) ( * UndefCntr0_CT lam1n8 ) ( * Nl8CT1 lam1n9 ) ( * Nl8CT2 lam1n10 ) ( * Nl8CT3 lam1n11 ) ( - 1 ( + ( + ( + ( + ( + Nl8CT1 ( * Nl8arg11 0 ) ) ( * Nl8arg21 0 ) ) ( * Nl8arg31 0 ) ) ( * Nl8arg41 0 ) ) ( * Nl8arg51 0 ) ) ) ) 0 ) ( = ( + ( * ( - 1 ) lam1n0 ) ( * ( - 1 ) lam1n4 ) ( * ( - 1 ) lam1n5 ) ( * ( - 1 ) lam1n6 ) ( * ( - 1 ) lam1n7 ) ( * UndefCntr0_arg1 lam1n8 ) ( * Nl8arg11 lam1n9 ) ( * Nl8arg12 lam1n10 ) ( * Nl8arg13 lam1n11 ) ) 0 ) ( = ( + ( * ( - 1 ) lam1n0 ) ( * ( - 1 ) lam1n1 ) ( * ( - 1 ) lam1n4 ) ( * UndefCntr0_arg2 lam1n8 ) ( * Nl8arg21 lam1n9 ) ( * Nl8arg22 lam1n10 ) ( * Nl8arg23 lam1n11 ) ) 0 ) ( = ( + ( * 1 lam1n4 ) ( * 1 lam1n5 ) ( * UndefCntr0_arg3 lam1n8 ) ( * Nl8arg31 lam1n9 ) ( * Nl8arg32 lam1n10 ) ( * Nl8arg33 lam1n11 ) ) 0 ) ( = ( + ( * 1 lam1n0 ) ( * 1 lam1n6 ) ( * UndefCntr0_arg4 lam1n8 ) ( * Nl8arg41 lam1n9 ) ( * Nl8arg42 lam1n10 ) ( * Nl8arg43 lam1n11 ) ) 0 ) ( = ( + ( * UndefCntr0_arg5 lam1n8 ) ( * Nl8arg51 lam1n9 ) ( * Nl8arg52 lam1n10 ) ( * Nl8arg53 lam1n11 ) ) 0 ) ( = ( + ( * ( - 1 ) lam1n2 ) ( * UndefCntr0_undef122 lam1n8 ) ( - ( + 0 ( * Nl8arg11 1 ) ) ) ) 0 ) ( = ( + ( * ( - 1 ) lam1n3 ) ( * UndefCntr0_undef123 lam1n8 ) ( - ( + 0 ( * Nl8arg21 1 ) ) ) ) 0 ) ( = ( + ( * UndefCntr0_undef124 lam1n8 ) ( - ( + 0 ( * Nl8arg31 1 ) ) ) ) 0 ) ( = ( + ( * UndefCntr0_undef125 lam1n8 ) ( - ( + 0 ( * Nl8arg41 1 ) ) ) ) 0 ) ( = ( + ( * UndefCntr0_undef126 lam1n8 ) ( - ( + 0 ( * Nl8arg51 1 ) ) ) ) 0 ) ) ))
(assert ( or ( and ( >= lam0n0 0 ) ( >= lam0n1 0 ) ( >= lam0n2 0 ) ( >= lam0n3 0 ) ( >= lam0n4 0 ) ( >= lam0n5 0 ) ( >= lam0n6 0 ) ( >= lam0n7 0 ) ( >= lam0n8 0 ) ( >= lam0n9 0 ) ( >= lam0n10 0 ) ( >= lam0n11 0 ) ( > ( + ( * 1 lam0n0 ) ( * 1 lam0n1 ) ( * 1 lam0n2 ) ( * 2 lam0n4 ) ( * 2 lam0n5 ) ( * 2 lam0n6 ) ( * 3 lam0n7 ) ( * UndefCntr0_CT lam0n8 ) ( * Nl8CT1 lam0n9 ) ( * Nl8CT2 lam0n10 ) ( * Nl8CT3 lam0n11 ) ( - 1 ) ) 0 ) ( = ( + ( * ( - 1 ) lam0n0 ) ( * ( - 1 ) lam0n4 ) ( * ( - 1 ) lam0n5 ) ( * ( - 1 ) lam0n6 ) ( * ( - 1 ) lam0n7 ) ( * UndefCntr0_arg1 lam0n8 ) ( * Nl8arg11 lam0n9 ) ( * Nl8arg12 lam0n10 ) ( * Nl8arg13 lam0n11 ) ) 0 ) ( = ( + ( * ( - 1 ) lam0n0 ) ( * ( - 1 ) lam0n1 ) ( * ( - 1 ) lam0n4 ) ( * UndefCntr0_arg2 lam0n8 ) ( * Nl8arg21 lam0n9 ) ( * Nl8arg22 lam0n10 ) ( * Nl8arg23 lam0n11 ) ) 0 ) ( = ( + ( * 1 lam0n4 ) ( * 1 lam0n5 ) ( * UndefCntr0_arg3 lam0n8 ) ( * Nl8arg31 lam0n9 ) ( * Nl8arg32 lam0n10 ) ( * Nl8arg33 lam0n11 ) ) 0 ) ( = ( + ( * 1 lam0n0 ) ( * 1 lam0n6 ) ( * UndefCntr0_arg4 lam0n8 ) ( * Nl8arg41 lam0n9 ) ( * Nl8arg42 lam0n10 ) ( * Nl8arg43 lam0n11 ) ) 0 ) ( = ( + ( * UndefCntr0_arg5 lam0n8 ) ( * Nl8arg51 lam0n9 ) ( * Nl8arg52 lam0n10 ) ( * Nl8arg53 lam0n11 ) ) 0 ) ( = ( + ( * ( - 1 ) lam0n2 ) ( * UndefCntr0_undef122 lam0n8 ) ) 0 ) ( = ( + ( * ( - 1 ) lam0n3 ) ( * UndefCntr0_undef123 lam0n8 ) ) 0 ) ( = ( * UndefCntr0_undef124 lam0n8 ) 0 ) ( = ( * UndefCntr0_undef125 lam0n8 ) 0 ) ( = ( * UndefCntr0_undef126 lam0n8 ) 0 ) ) ( and ( >= lam2n0 0 ) ( >= lam2n1 0 ) ( >= lam2n2 0 ) ( >= lam2n3 0 ) ( >= lam2n4 0 ) ( >= lam2n5 0 ) ( >= lam2n6 0 ) ( >= lam2n7 0 ) ( >= lam2n8 0 ) ( >= lam2n9 0 ) ( >= lam2n10 0 ) ( >= lam2n11 0 ) ( > ( + ( * 1 lam2n0 ) ( * 1 lam2n1 ) ( * 1 lam2n2 ) ( * 2 lam2n4 ) ( * 2 lam2n5 ) ( * 2 lam2n6 ) ( * 3 lam2n7 ) ( * UndefCntr0_CT lam2n8 ) ( * Nl8CT1 lam2n9 ) ( * Nl8CT2 lam2n10 ) ( * Nl8CT3 lam2n11 ) ( - 1 ( + ( + ( + ( + ( + Nl8CT2 ( * Nl8arg12 0 ) ) ( * Nl8arg22 0 ) ) ( * Nl8arg32 0 ) ) ( * Nl8arg42 0 ) ) ( * Nl8arg52 0 ) ) ) ) 0 ) ( = ( + ( * ( - 1 ) lam2n0 ) ( * ( - 1 ) lam2n4 ) ( * ( - 1 ) lam2n5 ) ( * ( - 1 ) lam2n6 ) ( * ( - 1 ) lam2n7 ) ( * UndefCntr0_arg1 lam2n8 ) ( * Nl8arg11 lam2n9 ) ( * Nl8arg12 lam2n10 ) ( * Nl8arg13 lam2n11 ) ) 0 ) ( = ( + ( * ( - 1 ) lam2n0 ) ( * ( - 1 ) lam2n1 ) ( * ( - 1 ) lam2n4 ) ( * UndefCntr0_arg2 lam2n8 ) ( * Nl8arg21 lam2n9 ) ( * Nl8arg22 lam2n10 ) ( * Nl8arg23 lam2n11 ) ) 0 ) ( = ( + ( * 1 lam2n4 ) ( * 1 lam2n5 ) ( * UndefCntr0_arg3 lam2n8 ) ( * Nl8arg31 lam2n9 ) ( * Nl8arg32 lam2n10 ) ( * Nl8arg33 lam2n11 ) ) 0 ) ( = ( + ( * 1 lam2n0 ) ( * 1 lam2n6 ) ( * UndefCntr0_arg4 lam2n8 ) ( * Nl8arg41 lam2n9 ) ( * Nl8arg42 lam2n10 ) ( * Nl8arg43 lam2n11 ) ) 0 ) ( = ( + ( * UndefCntr0_arg5 lam2n8 ) ( * Nl8arg51 lam2n9 ) ( * Nl8arg52 lam2n10 ) ( * Nl8arg53 lam2n11 ) ) 0 ) ( = ( + ( * ( - 1 ) lam2n2 ) ( * UndefCntr0_undef122 lam2n8 ) ( - ( + 0 ( * Nl8arg12 1 ) ) ) ) 0 ) ( = ( + ( * ( - 1 ) lam2n3 ) ( * UndefCntr0_undef123 lam2n8 ) ( - ( + 0 ( * Nl8arg22 1 ) ) ) ) 0 ) ( = ( + ( * UndefCntr0_undef124 lam2n8 ) ( - ( + 0 ( * Nl8arg32 1 ) ) ) ) 0 ) ( = ( + ( * UndefCntr0_undef125 lam2n8 ) ( - ( + 0 ( * Nl8arg42 1 ) ) ) ) 0 ) ( = ( + ( * UndefCntr0_undef126 lam2n8 ) ( - ( + 0 ( * Nl8arg52 1 ) ) ) ) 0 ) ) ))
(assert ( or ( and ( >= lam0n0 0 ) ( >= lam0n1 0 ) ( >= lam0n2 0 ) ( >= lam0n3 0 ) ( >= lam0n4 0 ) ( >= lam0n5 0 ) ( >= lam0n6 0 ) ( >= lam0n7 0 ) ( >= lam0n8 0 ) ( >= lam0n9 0 ) ( >= lam0n10 0 ) ( >= lam0n11 0 ) ( > ( + ( * 1 lam0n0 ) ( * 1 lam0n1 ) ( * 1 lam0n2 ) ( * 2 lam0n4 ) ( * 2 lam0n5 ) ( * 2 lam0n6 ) ( * 3 lam0n7 ) ( * UndefCntr0_CT lam0n8 ) ( * Nl8CT1 lam0n9 ) ( * Nl8CT2 lam0n10 ) ( * Nl8CT3 lam0n11 ) ( - 1 ) ) 0 ) ( = ( + ( * ( - 1 ) lam0n0 ) ( * ( - 1 ) lam0n4 ) ( * ( - 1 ) lam0n5 ) ( * ( - 1 ) lam0n6 ) ( * ( - 1 ) lam0n7 ) ( * UndefCntr0_arg1 lam0n8 ) ( * Nl8arg11 lam0n9 ) ( * Nl8arg12 lam0n10 ) ( * Nl8arg13 lam0n11 ) ) 0 ) ( = ( + ( * ( - 1 ) lam0n0 ) ( * ( - 1 ) lam0n1 ) ( * ( - 1 ) lam0n4 ) ( * UndefCntr0_arg2 lam0n8 ) ( * Nl8arg21 lam0n9 ) ( * Nl8arg22 lam0n10 ) ( * Nl8arg23 lam0n11 ) ) 0 ) ( = ( + ( * 1 lam0n4 ) ( * 1 lam0n5 ) ( * UndefCntr0_arg3 lam0n8 ) ( * Nl8arg31 lam0n9 ) ( * Nl8arg32 lam0n10 ) ( * Nl8arg33 lam0n11 ) ) 0 ) ( = ( + ( * 1 lam0n0 ) ( * 1 lam0n6 ) ( * UndefCntr0_arg4 lam0n8 ) ( * Nl8arg41 lam0n9 ) ( * Nl8arg42 lam0n10 ) ( * Nl8arg43 lam0n11 ) ) 0 ) ( = ( + ( * UndefCntr0_arg5 lam0n8 ) ( * Nl8arg51 lam0n9 ) ( * Nl8arg52 lam0n10 ) ( * Nl8arg53 lam0n11 ) ) 0 ) ( = ( + ( * ( - 1 ) lam0n2 ) ( * UndefCntr0_undef122 lam0n8 ) ) 0 ) ( = ( + ( * ( - 1 ) lam0n3 ) ( * UndefCntr0_undef123 lam0n8 ) ) 0 ) ( = ( * UndefCntr0_undef124 lam0n8 ) 0 ) ( = ( * UndefCntr0_undef125 lam0n8 ) 0 ) ( = ( * UndefCntr0_undef126 lam0n8 ) 0 ) ) ( and ( >= lam3n0 0 ) ( >= lam3n1 0 ) ( >= lam3n2 0 ) ( >= lam3n3 0 ) ( >= lam3n4 0 ) ( >= lam3n5 0 ) ( >= lam3n6 0 ) ( >= lam3n7 0 ) ( >= lam3n8 0 ) ( >= lam3n9 0 ) ( >= lam3n10 0 ) ( >= lam3n11 0 ) ( > ( + ( * 1 lam3n0 ) ( * 1 lam3n1 ) ( * 1 lam3n2 ) ( * 2 lam3n4 ) ( * 2 lam3n5 ) ( * 2 lam3n6 ) ( * 3 lam3n7 ) ( * UndefCntr0_CT lam3n8 ) ( * Nl8CT1 lam3n9 ) ( * Nl8CT2 lam3n10 ) ( * Nl8CT3 lam3n11 ) ( - 1 ( + ( + ( + ( + ( + Nl8CT3 ( * Nl8arg13 0 ) ) ( * Nl8arg23 0 ) ) ( * Nl8arg33 0 ) ) ( * Nl8arg43 0 ) ) ( * Nl8arg53 0 ) ) ) ) 0 ) ( = ( + ( * ( - 1 ) lam3n0 ) ( * ( - 1 ) lam3n4 ) ( * ( - 1 ) lam3n5 ) ( * ( - 1 ) lam3n6 ) ( * ( - 1 ) lam3n7 ) ( * UndefCntr0_arg1 lam3n8 ) ( * Nl8arg11 lam3n9 ) ( * Nl8arg12 lam3n10 ) ( * Nl8arg13 lam3n11 ) ) 0 ) ( = ( + ( * ( - 1 ) lam3n0 ) ( * ( - 1 ) lam3n1 ) ( * ( - 1 ) lam3n4 ) ( * UndefCntr0_arg2 lam3n8 ) ( * Nl8arg21 lam3n9 ) ( * Nl8arg22 lam3n10 ) ( * Nl8arg23 lam3n11 ) ) 0 ) ( = ( + ( * 1 lam3n4 ) ( * 1 lam3n5 ) ( * UndefCntr0_arg3 lam3n8 ) ( * Nl8arg31 lam3n9 ) ( * Nl8arg32 lam3n10 ) ( * Nl8arg33 lam3n11 ) ) 0 ) ( = ( + ( * 1 lam3n0 ) ( * 1 lam3n6 ) ( * UndefCntr0_arg4 lam3n8 ) ( * Nl8arg41 lam3n9 ) ( * Nl8arg42 lam3n10 ) ( * Nl8arg43 lam3n11 ) ) 0 ) ( = ( + ( * UndefCntr0_arg5 lam3n8 ) ( * Nl8arg51 lam3n9 ) ( * Nl8arg52 lam3n10 ) ( * Nl8arg53 lam3n11 ) ) 0 ) ( = ( + ( * ( - 1 ) lam3n2 ) ( * UndefCntr0_undef122 lam3n8 ) ( - ( + 0 ( * Nl8arg13 1 ) ) ) ) 0 ) ( = ( + ( * ( - 1 ) lam3n3 ) ( * UndefCntr0_undef123 lam3n8 ) ( - ( + 0 ( * Nl8arg23 1 ) ) ) ) 0 ) ( = ( + ( * UndefCntr0_undef124 lam3n8 ) ( - ( + 0 ( * Nl8arg33 1 ) ) ) ) 0 ) ( = ( + ( * UndefCntr0_undef125 lam3n8 ) ( - ( + 0 ( * Nl8arg43 1 ) ) ) ) 0 ) ( = ( + ( * UndefCntr0_undef126 lam3n8 ) ( - ( + 0 ( * Nl8arg53 1 ) ) ) ) 0 ) ) ))
(assert ( and ( <= ( + Nl8CT1 ( * Nl8arg11 FV_arg1_1 ) ( * Nl8arg21 FV_arg2_1 ) ( * Nl8arg31 FV_arg3_1 ) ( * Nl8arg41 FV_arg4_1 ) ( * Nl8arg51 FV_arg5_1 ) ) 0 ) ( <= ( + Nl8CT2 ( * Nl8arg12 FV_arg1_1 ) ( * Nl8arg22 FV_arg2_1 ) ( * Nl8arg32 FV_arg3_1 ) ( * Nl8arg42 FV_arg4_1 ) ( * Nl8arg52 FV_arg5_1 ) ) 0 ) ( <= ( + Nl8CT3 ( * Nl8arg13 FV_arg1_1 ) ( * Nl8arg23 FV_arg2_1 ) ( * Nl8arg33 FV_arg3_1 ) ( * Nl8arg43 FV_arg4_1 ) ( * Nl8arg53 FV_arg5_1 ) ) 0 ) ))
(assert ( or ( not ( = UndefCntr0_arg1 0 ) ) ( not ( = UndefCntr0_arg2 0 ) ) ( not ( = UndefCntr0_arg3 0 ) ) ( not ( = UndefCntr0_arg4 0 ) ) ( not ( = UndefCntr0_arg5 0 ) ) ( not ( = UndefCntr0_undef122 0 ) ) ( not ( = UndefCntr0_undef123 0 ) ) ( not ( = UndefCntr0_undef124 0 ) ) ( not ( = UndefCntr0_undef125 0 ) ) ( not ( = UndefCntr0_undef126 0 ) ) ( = UndefCntr0_CT 0 ) ))
(assert ( or ( and ( = UndefCntr0_arg1 0 ) ( = UndefCntr0_arg2 0 ) ( = UndefCntr0_arg3 0 ) ( = UndefCntr0_arg4 0 ) ( = UndefCntr0_arg5 0 ) ) ( or ( not ( = UndefCntr0_undef122 0 ) ) ( not ( = UndefCntr0_undef123 0 ) ) ( not ( = UndefCntr0_undef124 0 ) ) ( not ( = UndefCntr0_undef125 0 ) ) ( not ( = UndefCntr0_undef126 0 ) ) ) ))
(assert ( or ( = UndefCntr0_undef122 0 ) ( and ( and ( = UndefCntr0_arg1 0 ) ( = UndefCntr0_arg2 0 ) ( = UndefCntr0_arg3 0 ) ( = UndefCntr0_arg4 0 ) ( = UndefCntr0_arg5 0 ) ( = UndefCntr0_undef124 0 ) ( = UndefCntr0_undef125 0 ) ( = UndefCntr0_undef126 0 ) ( = UndefCntr0_undef123 0 ) ) ( or ( and ( <= ( + 1 ( * ( - 1 ) FV_undef122_0 ) ) 0 ) ( <= ( + UndefCntr0_CT ( * UndefCntr0_undef122 FV_undef122_0 ) ( * UndefCntr0_undef123 FV_undef123_0 ) ( * UndefCntr0_arg1 FV_arg1_0 ) ( * UndefCntr0_arg2 FV_arg2_0 ) ( * UndefCntr0_arg3 FV_arg3_0 ) ( * UndefCntr0_arg4 FV_arg4_0 ) ( * UndefCntr0_arg5 FV_arg5_0 ) ( * UndefCntr0_undef124 FV_undef124_0 ) ( * UndefCntr0_undef125 FV_undef125_0 ) ( * UndefCntr0_undef126 FV_undef126_0 ) ) 0 ) ) ( and ( <= ( + 1 ( * ( - 1 ) FV_undef122_0 ) ) 0 ) ( <= ( + UndefCntr0_CT ( * UndefCntr0_undef122 FV_undef122_0 ) ( * UndefCntr0_undef123 FV_undef123_0 ) ( * UndefCntr0_arg1 FV_arg1_0 ) ( * UndefCntr0_arg2 FV_arg2_0 ) ( * UndefCntr0_arg3 FV_arg3_0 ) ( * UndefCntr0_arg4 FV_arg4_0 ) ( * UndefCntr0_arg5 FV_arg5_0 ) ( * UndefCntr0_undef124 FV_undef124_0 ) ( * UndefCntr0_undef125 FV_undef125_0 ) ( * UndefCntr0_undef126 FV_undef126_0 ) ) 0 ) ) ) ) ))
(assert ( or ( = UndefCntr0_undef123 0 ) ( and ( and ( = UndefCntr0_arg1 0 ) ( = UndefCntr0_arg2 0 ) ( = UndefCntr0_arg3 0 ) ( = UndefCntr0_arg4 0 ) ( = UndefCntr0_arg5 0 ) ( = UndefCntr0_undef124 0 ) ( = UndefCntr0_undef125 0 ) ( = UndefCntr0_undef126 0 ) ( = UndefCntr0_undef122 0 ) ) ( or ( and ( <= ( * ( - 1 ) FV_undef123_0 ) 0 ) ( <= ( + UndefCntr0_CT ( * UndefCntr0_undef122 FV_undef122_0 ) ( * UndefCntr0_undef123 FV_undef123_0 ) ( * UndefCntr0_arg1 FV_arg1_0 ) ( * UndefCntr0_arg2 FV_arg2_0 ) ( * UndefCntr0_arg3 FV_arg3_0 ) ( * UndefCntr0_arg4 FV_arg4_0 ) ( * UndefCntr0_arg5 FV_arg5_0 ) ( * UndefCntr0_undef124 FV_undef124_0 ) ( * UndefCntr0_undef125 FV_undef125_0 ) ( * UndefCntr0_undef126 FV_undef126_0 ) ) 0 ) ) ( and ( <= ( * ( - 1 ) FV_undef123_0 ) 0 ) ( <= ( + UndefCntr0_CT ( * UndefCntr0_undef122 FV_undef122_0 ) ( * UndefCntr0_undef123 FV_undef123_0 ) ( * UndefCntr0_arg1 FV_arg1_0 ) ( * UndefCntr0_arg2 FV_arg2_0 ) ( * UndefCntr0_arg3 FV_arg3_0 ) ( * UndefCntr0_arg4 FV_arg4_0 ) ( * UndefCntr0_arg5 FV_arg5_0 ) ( * UndefCntr0_undef124 FV_undef124_0 ) ( * UndefCntr0_undef125 FV_undef125_0 ) ( * UndefCntr0_undef126 FV_undef126_0 ) ) 0 ) ) ) ) ))
(assert ( or ( and ( >= lam13n0 0 ) ( >= lam13n1 0 ) ( >= lam13n2 0 ) ( >= lam13n3 0 ) ( >= lam13n4 0 ) ( >= lam13n5 0 ) ( >= lam13n6 0 ) ( >= lam13n7 0 ) ( >= lam13n8 0 ) ( > ( + ( * 1 lam13n0 ) ( * 1 lam13n1 ) ( * 2 lam13n2 ) ( * 2 lam13n3 ) ( * 2 lam13n4 ) ( * ( - 2 ) lam13n5 ) ( * Nl8CT1 lam13n6 ) ( * Nl8CT2 lam13n7 ) ( * Nl8CT3 lam13n8 ) ( - 1 ) ) 0 ) ( = ( + ( * ( - 1 ) lam13n0 ) ( * ( - 1 ) lam13n2 ) ( * ( - 1 ) lam13n3 ) ( * ( - 1 ) lam13n4 ) ( * 1 lam13n5 ) ( * Nl8arg11 lam13n6 ) ( * Nl8arg12 lam13n7 ) ( * Nl8arg13 lam13n8 ) ) 0 ) ( = ( + ( * ( - 1 ) lam13n0 ) ( * ( - 1 ) lam13n1 ) ( * ( - 1 ) lam13n2 ) ( * Nl8arg21 lam13n6 ) ( * Nl8arg22 lam13n7 ) ( * Nl8arg23 lam13n8 ) ) 0 ) ( = ( + ( * 1 lam13n2 ) ( * 1 lam13n3 ) ( * Nl8arg31 lam13n6 ) ( * Nl8arg32 lam13n7 ) ( * Nl8arg33 lam13n8 ) ) 0 ) ( = ( + ( * 1 lam13n0 ) ( * 1 lam13n4 ) ( * Nl8arg41 lam13n6 ) ( * Nl8arg42 lam13n7 ) ( * Nl8arg43 lam13n8 ) ) 0 ) ( = ( + ( * Nl8arg51 lam13n6 ) ( * Nl8arg52 lam13n7 ) ( * Nl8arg53 lam13n8 ) ) 0 ) ) ( and ( >= lam14n0 0 ) ( >= lam14n1 0 ) ( >= lam14n2 0 ) ( >= lam14n3 0 ) ( >= lam14n4 0 ) ( >= lam14n5 0 ) ( >= lam14n6 0 ) ( >= lam14n7 0 ) ( > ( + ( * 1 lam14n0 ) ( * 1 lam14n1 ) ( * ( - 1 ) lam14n2 ) ( * 2 lam14n3 ) ( * 2 lam14n4 ) ( * Nl8CT1 lam14n5 ) ( * Nl8CT2 lam14n6 ) ( * Nl8CT3 lam14n7 ) ( - 1 ) ) 0 ) ( = ( + ( * ( - 1 ) lam14n0 ) ( * 1 lam14n2 ) ( * ( - 1 ) lam14n3 ) ( * ( - 1 ) lam14n4 ) ( * Nl8arg11 lam14n5 ) ( * Nl8arg12 lam14n6 ) ( * Nl8arg13 lam14n7 ) ) 0 ) ( = ( + ( * ( - 1 ) lam14n0 ) ( * ( - 1 ) lam14n1 ) ( * ( - 1 ) lam14n3 ) ( * Nl8arg21 lam14n5 ) ( * Nl8arg22 lam14n6 ) ( * Nl8arg23 lam14n7 ) ) 0 ) ( = ( + ( * 1 lam14n3 ) ( * 1 lam14n4 ) ( * Nl8arg31 lam14n5 ) ( * Nl8arg32 lam14n6 ) ( * Nl8arg33 lam14n7 ) ) 0 ) ( = ( + ( * 1 lam14n0 ) ( * ( - 1 ) lam14n2 ) ( * Nl8arg41 lam14n5 ) ( * Nl8arg42 lam14n6 ) ( * Nl8arg43 lam14n7 ) ) 0 ) ( = ( + ( * Nl8arg51 lam14n5 ) ( * Nl8arg52 lam14n6 ) ( * Nl8arg53 lam14n7 ) ) 0 ) ) ( and ( >= lam15n0 0 ) ( >= lam15n1 0 ) ( >= lam15n2 0 ) ( >= lam15n3 0 ) ( >= lam15n4 0 ) ( >= lam15n5 0 ) ( >= lam15n6 0 ) ( > ( + ( * 1 lam15n0 ) ( * 1 lam15n1 ) ( * ( - 1 ) lam15n2 ) ( * 2 lam15n3 ) ( * Nl8CT1 lam15n4 ) ( * Nl8CT2 lam15n5 ) ( * Nl8CT3 lam15n6 ) ( - 1 ) ) 0 ) ( = ( + ( * ( - 1 ) lam15n0 ) ( * 1 lam15n2 ) ( * ( - 1 ) lam15n3 ) ( * Nl8arg11 lam15n4 ) ( * Nl8arg12 lam15n5 ) ( * Nl8arg13 lam15n6 ) ) 0 ) ( = ( + ( * ( - 1 ) lam15n0 ) ( * ( - 1 ) lam15n1 ) ( * ( - 1 ) lam15n3 ) ( * Nl8arg21 lam15n4 ) ( * Nl8arg22 lam15n5 ) ( * Nl8arg23 lam15n6 ) ) 0 ) ( = ( + ( * ( - 1 ) lam15n2 ) ( * 1 lam15n3 ) ( * Nl8arg31 lam15n4 ) ( * Nl8arg32 lam15n5 ) ( * Nl8arg33 lam15n6 ) ) 0 ) ( = ( + ( * 1 lam15n0 ) ( * Nl8arg41 lam15n4 ) ( * Nl8arg42 lam15n5 ) ( * Nl8arg43 lam15n6 ) ) 0 ) ( = ( + ( * Nl8arg51 lam15n4 ) ( * Nl8arg52 lam15n5 ) ( * Nl8arg53 lam15n6 ) ) 0 ) ) ( and ( >= lam16n0 0 ) ( >= lam16n1 0 ) ( >= lam16n2 0 ) ( >= lam16n3 0 ) ( >= lam16n4 0 ) ( >= lam16n5 0 ) ( >= lam16n6 0 ) ( > ( + ( * 1 lam16n0 ) ( * 1 lam16n1 ) ( * ( - 1 ) lam16n2 ) ( * ( - 1 ) lam16n3 ) ( * Nl8CT1 lam16n4 ) ( * Nl8CT2 lam16n5 ) ( * Nl8CT3 lam16n6 ) ( - 1 ) ) 0 ) ( = ( + ( * ( - 1 ) lam16n0 ) ( * 1 lam16n2 ) ( * 1 lam16n3 ) ( * Nl8arg11 lam16n4 ) ( * Nl8arg12 lam16n5 ) ( * Nl8arg13 lam16n6 ) ) 0 ) ( = ( + ( * ( - 1 ) lam16n0 ) ( * ( - 1 ) lam16n1 ) ( * 1 lam16n2 ) ( * Nl8arg21 lam16n4 ) ( * Nl8arg22 lam16n5 ) ( * Nl8arg23 lam16n6 ) ) 0 ) ( = ( + ( * ( - 1 ) lam16n2 ) ( * ( - 1 ) lam16n3 ) ( * Nl8arg31 lam16n4 ) ( * Nl8arg32 lam16n5 ) ( * Nl8arg33 lam16n6 ) ) 0 ) ( = ( + ( * 1 lam16n0 ) ( * Nl8arg41 lam16n4 ) ( * Nl8arg42 lam16n5 ) ( * Nl8arg43 lam16n6 ) ) 0 ) ( = ( + ( * Nl8arg51 lam16n4 ) ( * Nl8arg52 lam16n5 ) ( * Nl8arg53 lam16n6 ) ) 0 ) ) ( and ( >= lam17n0 0 ) ( >= lam17n1 0 ) ( >= lam17n2 0 ) ( >= lam17n3 0 ) ( >= lam17n4 0 ) ( >= lam17n5 0 ) ( >= lam17n6 0 ) ( > ( + ( * 1 lam17n0 ) ( * 2 lam17n2 ) ( * 2 lam17n3 ) ( * Nl8CT1 lam17n4 ) ( * Nl8CT2 lam17n5 ) ( * Nl8CT3 lam17n6 ) ( - 1 ) ) 0 ) ( = ( + ( * ( - 1 ) lam17n0 ) ( * ( - 1 ) lam17n2 ) ( * ( - 1 ) lam17n3 ) ( * Nl8arg11 lam17n4 ) ( * Nl8arg12 lam17n5 ) ( * Nl8arg13 lam17n6 ) ) 0 ) ( = ( + ( * ( - 1 ) lam17n0 ) ( * 1 lam17n1 ) ( * ( - 1 ) lam17n2 ) ( * Nl8arg21 lam17n4 ) ( * Nl8arg22 lam17n5 ) ( * Nl8arg23 lam17n6 ) ) 0 ) ( = ( + ( * 1 lam17n2 ) ( * 1 lam17n3 ) ( * Nl8arg31 lam17n4 ) ( * Nl8arg32 lam17n5 ) ( * Nl8arg33 lam17n6 ) ) 0 ) ( = ( + ( * 1 lam17n0 ) ( * Nl8arg41 lam17n4 ) ( * Nl8arg42 lam17n5 ) ( * Nl8arg43 lam17n6 ) ) 0 ) ( = ( + ( * Nl8arg51 lam17n4 ) ( * Nl8arg52 lam17n5 ) ( * Nl8arg53 lam17n6 ) ) 0 ) ) ( and ( >= lam18n0 0 ) ( >= lam18n1 0 ) ( >= lam18n2 0 ) ( >= lam18n3 0 ) ( >= lam18n4 0 ) ( >= lam18n5 0 ) ( >= lam18n6 0 ) ( >= lam18n7 0 ) ( > ( + ( * 1 lam18n0 ) ( * ( - 1 ) lam18n1 ) ( * 2 lam18n3 ) ( * 2 lam18n4 ) ( * Nl8CT1 lam18n5 ) ( * Nl8CT2 lam18n6 ) ( * Nl8CT3 lam18n7 ) ( - 1 ) ) 0 ) ( = ( + ( * ( - 1 ) lam18n0 ) ( * 1 lam18n1 ) ( * ( - 1 ) lam18n3 ) ( * ( - 1 ) lam18n4 ) ( * Nl8arg11 lam18n5 ) ( * Nl8arg12 lam18n6 ) ( * Nl8arg13 lam18n7 ) ) 0 ) ( = ( + ( * ( - 1 ) lam18n0 ) ( * 1 lam18n1 ) ( * 1 lam18n2 ) ( * Nl8arg21 lam18n5 ) ( * Nl8arg22 lam18n6 ) ( * Nl8arg23 lam18n7 ) ) 0 ) ( = ( + ( * ( - 1 ) lam18n1 ) ( * 1 lam18n3 ) ( * Nl8arg31 lam18n5 ) ( * Nl8arg32 lam18n6 ) ( * Nl8arg33 lam18n7 ) ) 0 ) ( = ( + ( * 1 lam18n0 ) ( * 1 lam18n4 ) ( * Nl8arg41 lam18n5 ) ( * Nl8arg42 lam18n6 ) ( * Nl8arg43 lam18n7 ) ) 0 ) ( = ( + ( * Nl8arg51 lam18n5 ) ( * Nl8arg52 lam18n6 ) ( * Nl8arg53 lam18n7 ) ) 0 ) ) ( and ( >= lam19n0 0 ) ( >= lam19n1 0 ) ( >= lam19n2 0 ) ( >= lam19n3 0 ) ( >= lam19n4 0 ) ( >= lam19n5 0 ) ( >= lam19n6 0 ) ( > ( + ( * 1 lam19n0 ) ( * ( - 1 ) lam19n1 ) ( * ( - 1 ) lam19n2 ) ( * Nl8CT1 lam19n4 ) ( * Nl8CT2 lam19n5 ) ( * Nl8CT3 lam19n6 ) ( - 1 ) ) 0 ) ( = ( + ( * ( - 1 ) lam19n0 ) ( * 1 lam19n1 ) ( * 1 lam19n2 ) ( * Nl8arg11 lam19n4 ) ( * Nl8arg12 lam19n5 ) ( * Nl8arg13 lam19n6 ) ) 0 ) ( = ( + ( * ( - 1 ) lam19n0 ) ( * 1 lam19n1 ) ( * 1 lam19n3 ) ( * Nl8arg21 lam19n4 ) ( * Nl8arg22 lam19n5 ) ( * Nl8arg23 lam19n6 ) ) 0 ) ( = ( + ( * ( - 1 ) lam19n1 ) ( * ( - 1 ) lam19n2 ) ( * Nl8arg31 lam19n4 ) ( * Nl8arg32 lam19n5 ) ( * Nl8arg33 lam19n6 ) ) 0 ) ( = ( + ( * 1 lam19n0 ) ( * Nl8arg41 lam19n4 ) ( * Nl8arg42 lam19n5 ) ( * Nl8arg43 lam19n6 ) ) 0 ) ( = ( + ( * Nl8arg51 lam19n4 ) ( * Nl8arg52 lam19n5 ) ( * Nl8arg53 lam19n6 ) ) 0 ) ) ( and ( >= lam20n0 0 ) ( >= lam20n1 0 ) ( >= lam20n2 0 ) ( >= lam20n3 0 ) ( >= lam20n4 0 ) ( >= lam20n5 0 ) ( >= lam20n6 0 ) ( > ( + ( * 1 lam20n0 ) ( * ( - 1 ) lam20n1 ) ( * 2 lam20n3 ) ( * Nl8CT1 lam20n4 ) ( * Nl8CT2 lam20n5 ) ( * Nl8CT3 lam20n6 ) ( - 1 ) ) 0 ) ( = ( + ( * 1 lam20n1 ) ( * 1 lam20n2 ) ( * ( - 1 ) lam20n3 ) ( * Nl8arg11 lam20n4 ) ( * Nl8arg12 lam20n5 ) ( * Nl8arg13 lam20n6 ) ) 0 ) ( = ( + ( * ( - 1 ) lam20n0 ) ( * 1 lam20n2 ) ( * ( - 1 ) lam20n3 ) ( * Nl8arg21 lam20n4 ) ( * Nl8arg22 lam20n5 ) ( * Nl8arg23 lam20n6 ) ) 0 ) ( = ( + ( * 1 lam20n3 ) ( * Nl8arg31 lam20n4 ) ( * Nl8arg32 lam20n5 ) ( * Nl8arg33 lam20n6 ) ) 0 ) ( = ( + ( * ( - 1 ) lam20n1 ) ( * ( - 1 ) lam20n2 ) ( * Nl8arg41 lam20n4 ) ( * Nl8arg42 lam20n5 ) ( * Nl8arg43 lam20n6 ) ) 0 ) ( = ( + ( * Nl8arg51 lam20n4 ) ( * Nl8arg52 lam20n5 ) ( * Nl8arg53 lam20n6 ) ) 0 ) ) ( and ( >= lam21n0 0 ) ( >= lam21n1 0 ) ( >= lam21n2 0 ) ( >= lam21n3 0 ) ( >= lam21n4 0 ) ( >= lam21n5 0 ) ( >= lam21n6 0 ) ( >= lam21n7 0 ) ( > ( + ( * 1 lam21n0 ) ( * ( - 1 ) lam21n1 ) ( * ( - 1 ) lam21n2 ) ( * ( - 1 ) lam21n3 ) ( * Nl8CT1 lam21n5 ) ( * Nl8CT2 lam21n6 ) ( * Nl8CT3 lam21n7 ) ( - 1 ) ) 0 ) ( = ( + ( * 1 lam21n1 ) ( * 1 lam21n2 ) ( * 1 lam21n3 ) ( * 1 lam21n4 ) ( * Nl8arg11 lam21n5 ) ( * Nl8arg12 lam21n6 ) ( * Nl8arg13 lam21n7 ) ) 0 ) ( = ( + ( * ( - 1 ) lam21n0 ) ( * 1 lam21n1 ) ( * 1 lam21n4 ) ( * Nl8arg21 lam21n5 ) ( * Nl8arg22 lam21n6 ) ( * Nl8arg23 lam21n7 ) ) 0 ) ( = ( + ( * ( - 1 ) lam21n1 ) ( * ( - 1 ) lam21n2 ) ( * Nl8arg31 lam21n5 ) ( * Nl8arg32 lam21n6 ) ( * Nl8arg33 lam21n7 ) ) 0 ) ( = ( + ( * ( - 1 ) lam21n3 ) ( * ( - 1 ) lam21n4 ) ( * Nl8arg41 lam21n5 ) ( * Nl8arg42 lam21n6 ) ( * Nl8arg43 lam21n7 ) ) 0 ) ( = ( + ( * Nl8arg51 lam21n5 ) ( * Nl8arg52 lam21n6 ) ( * Nl8arg53 lam21n7 ) ) 0 ) ) ( and ( >= lam22n0 0 ) ( >= lam22n1 0 ) ( >= lam22n2 0 ) ( >= lam22n3 0 ) ( >= lam22n4 0 ) ( >= lam22n5 0 ) ( >= lam22n6 0 ) ( > ( + ( * 2 lam22n2 ) ( * 2 lam22n3 ) ( * Nl8CT1 lam22n4 ) ( * Nl8CT2 lam22n5 ) ( * Nl8CT3 lam22n6 ) ( - 1 ) ) 0 ) ( = ( + ( * 1 lam22n0 ) ( * ( - 1 ) lam22n2 ) ( * ( - 1 ) lam22n3 ) ( * Nl8arg11 lam22n4 ) ( * Nl8arg12 lam22n5 ) ( * Nl8arg13 lam22n6 ) ) 0 ) ( = ( + ( * 1 lam22n0 ) ( * 1 lam22n1 ) ( * ( - 1 ) lam22n2 ) ( * Nl8arg21 lam22n4 ) ( * Nl8arg22 lam22n5 ) ( * Nl8arg23 lam22n6 ) ) 0 ) ( = ( + ( * 1 lam22n2 ) ( * 1 lam22n3 ) ( * Nl8arg31 lam22n4 ) ( * Nl8arg32 lam22n5 ) ( * Nl8arg33 lam22n6 ) ) 0 ) ( = ( + ( * ( - 1 ) lam22n0 ) ( * Nl8arg41 lam22n4 ) ( * Nl8arg42 lam22n5 ) ( * Nl8arg43 lam22n6 ) ) 0 ) ( = ( + ( * Nl8arg51 lam22n4 ) ( * Nl8arg52 lam22n5 ) ( * Nl8arg53 lam22n6 ) ) 0 ) ) ( and ( >= lam23n0 0 ) ( >= lam23n1 0 ) ( >= lam23n2 0 ) ( >= lam23n3 0 ) ( >= lam23n4 0 ) ( >= lam23n5 0 ) ( > ( + ( * ( - 1 ) lam23n0 ) ( * Nl8CT1 lam23n3 ) ( * Nl8CT2 lam23n4 ) ( * Nl8CT3 lam23n5 ) ( - 1 ) ) 0 ) ( = ( + ( * 1 lam23n0 ) ( * 1 lam23n1 ) ( * Nl8arg11 lam23n3 ) ( * Nl8arg12 lam23n4 ) ( * Nl8arg13 lam23n5 ) ) 0 ) ( = ( + ( * 1 lam23n0 ) ( * 1 lam23n1 ) ( * 1 lam23n2 ) ( * Nl8arg21 lam23n3 ) ( * Nl8arg22 lam23n4 ) ( * Nl8arg23 lam23n5 ) ) 0 ) ( = ( + ( * ( - 1 ) lam23n0 ) ( * Nl8arg31 lam23n3 ) ( * Nl8arg32 lam23n4 ) ( * Nl8arg33 lam23n5 ) ) 0 ) ( = ( + ( * ( - 1 ) lam23n1 ) ( * Nl8arg41 lam23n3 ) ( * Nl8arg42 lam23n4 ) ( * Nl8arg43 lam23n5 ) ) 0 ) ( = ( + ( * Nl8arg51 lam23n3 ) ( * Nl8arg52 lam23n4 ) ( * Nl8arg53 lam23n5 ) ) 0 ) ) ))
(assert ( and ( and ( <= ( + Nl8CT1 ( * Nl8arg11 FV_arg1_2 ) ( * Nl8arg21 FV_arg2_2 ) ( * Nl8arg41 FV_arg4_2 ) ( * Nl8arg31 FV_arg3_2 ) ( * Nl8arg51 FV_arg5_2 ) ) 0 ) ( <= ( + Nl8CT2 ( * Nl8arg12 FV_arg1_2 ) ( * Nl8arg22 FV_arg2_2 ) ( * Nl8arg42 FV_arg4_2 ) ( * Nl8arg32 FV_arg3_2 ) ( * Nl8arg52 FV_arg5_2 ) ) 0 ) ( <= ( + Nl8CT3 ( * Nl8arg13 FV_arg1_2 ) ( * Nl8arg23 FV_arg2_2 ) ( * Nl8arg43 FV_arg4_2 ) ( * Nl8arg33 FV_arg3_2 ) ( * Nl8arg53 FV_arg5_2 ) ) 0 ) ) ( and ( <= ( + 1 ( * ( - 1 ) FV_arg1_2 ) ( * ( - 1 ) FV_arg2_2 ) FV_arg4_2 ) 0 ) ( <= ( + 1 ( * ( - 1 ) FV_arg2_2 ) ) 0 ) ( <= ( + 1 ( * ( - 1 ) FV_undef122_2 ) ) 0 ) ( <= ( * ( - 1 ) FV_undef123_2 ) 0 ) ( <= ( + 2 ( * ( - 1 ) FV_arg1_2 ) ( * ( - 1 ) FV_arg2_2 ) FV_arg3_2 ) 0 ) ( <= ( + 2 ( * ( - 1 ) FV_arg1_2 ) FV_arg3_2 ) 0 ) ( <= ( + 2 ( * ( - 1 ) FV_arg1_2 ) FV_arg4_2 ) 0 ) ( <= ( + 3 ( * ( - 1 ) FV_arg1_2 ) ) 0 ) ) ))
(check-sat)
(exit)
